(set-logic BV) (define-fun origCir ((n170 Bool) (n106 Bool) (i_16 Bool) (n169 Bool)) Bool (and (xor (and n106 i_16) n170) n169)) (synth-fun skel ((n170 Bool) (n106 Bool) (i_16 Bool) (n169 Bool)) Bool) (declare-var n170 Bool) (declare-var n106 Bool) (declare-var i_16 Bool) (declare-var n169 Bool) (constraint (= (origCir n170 n106 i_16 n169) (skel n170 n106 i_16 n169))) (check-synth)
